************************************************************************
file with basedata            : mm19_.bas
initial value random generator: 149200550
************************************************************************
projects                      :  1
jobs (incl. supersource/sink ):  12
horizon                       :  76
RESOURCES
  - renewable                 :  2   R
  - nonrenewable              :  2   N
  - doubly constrained        :  0   D
************************************************************************
PROJECT INFORMATION:
pronr.  #jobs rel.date duedate tardcost  MPM-Time
    1     10      0       14        6       14
************************************************************************
PRECEDENCE RELATIONS:
jobnr.    #modes  #successors   successors
   0        1          3           1   2   3
   1        3          2           4   7
   2        3          1           8
   3        3          3           5   6   8
   4        3          1          10
   5        3          2           9  10
   6        3          1           9
   7        3          2           8  10
   8        3          1          11
   9        3          1          11
  10        3          1          11
  11        1          0        
************************************************************************
REQUESTS/DURATIONS:
jobnr. mode duration  R 1  R 2  R 3  R 4  E(W 1)  E(W 2)  E(W 3)
------------------------------------------------------------------------
  0      1     0       0    0    0    0     0       0       0
  1      1     2       2    0    4    0     4       8       0
  2      1     4       6    0    8    0    24      32       0
  3      1     2       0    8    7    0    16      14       0
  4      1     1       3    0    6    0     3       6       0
  5      1     5       0    9    8    0    45      40       0
  6      1     4      10    0    0    6    40       0      24
  7      1     1       0    4    4    0     4       4       0
  8      1     1       6    0    7    0     6       7       0
  9      1     2       0   10    0    7    20       0      14
 10      1     7       7    0    0    4    49       0      28
 11      1     0       0    0    0    0     0       0       0
************************************************************************
RESOURCEAVAILABILITIES:
  R 1  R 2  R 3
   33   41   32
************************************************************************
RESOURCE LIMITS:
jobnr.  l(R 1)  u(R 1)  l(R 2)  u(R 2)  l(R 3)  u(R 3)
------------------------------------------------------------------------
  0        0       0       0       0       0       0
  1        1       2       2       4       0       0
  2        3       6       4       8       0       0
  3        4       8       4       7       0       0
  4        2       3       3       6       0       0
  5        5       9       4       8       0       0
  6        5      10       0       0       3       6
  7        2       4       2       4       0       0
  8        3       6       4       7       0       0
  9        5      10       0       0       4       7
 10        4       7       0       0       2       4
 11        0       0       0       0       0       0
************************************************************************
SCENARIOS:
------------------------------------------------------------------------
RESOURCE k = 1
s = 1: (0, 6, 24, 11, 2, 42, 45, 4, 6, 15, 47, 0)
s = 2: (0, 4, 30, 13, 4, 46, 33, 4, 7, 25, 55, 0)
s = 3: (0, 5, 15, 15, 3, 34, 48, 4, 4, 15, 45, 0)
s = 4: (0, 6, 29, 27, 3, 50, 47, 3, 6, 20, 39, 0)
s = 5: (0, 3, 27, 19, 5, 36, 45, 3, 9, 15, 52, 0)
s = 6: (0, 4, 26, 17, 3, 41, 37, 3, 9, 22, 70, 0)
s = 7: (0, 4, 24, 26, 6, 31, 52, 5, 5, 19, 62, 0)
s = 8: (0, 5, 23, 10, 2, 40, 38, 3, 4, 21, 41, 0)
s = 9: (0, 7, 42, 18, 3, 29, 21, 5, 8, 21, 54, 0)
s = 10: (0, 4, 20, 11, 5, 46, 33, 5, 7, 22, 65, 0)
s = 11: (0, 4, 25, 18, 4, 56, 43, 4, 10, 15, 42, 0)
s = 12: (0, 6, 26, 23, 3, 74, 31, 3, 6, 27, 34, 0)
s = 13: (0, 4, 18, 18, 3, 62, 54, 3, 6, 23, 46, 0)
s = 14: (0, 6, 15, 11, 2, 72, 25, 5, 5, 27, 27, 0)
s = 15: (0, 3, 23, 17, 3, 37, 58, 4, 9, 22, 29, 0)
s = 16: (0, 4, 24, 10, 3, 48, 57, 4, 6, 22, 38, 0)
s = 17: (0, 6, 31, 27, 3, 70, 27, 5, 10, 28, 44, 0)
s = 18: (0, 5, 19, 19, 5, 37, 33, 5, 7, 22, 56, 0)
s = 19: (0, 5, 22, 11, 4, 63, 29, 4, 7, 11, 47, 0)
s = 20: (0, 5, 22, 17, 4, 43, 45, 3, 6, 27, 57, 0)
s = 21: (0, 4, 25, 10, 3, 46, 44, 4, 9, 16, 41, 0)
s = 22: (0, 5, 14, 28, 3, 61, 36, 4, 5, 16, 35, 0)
s = 23: (0, 7, 17, 14, 3, 56, 33, 4, 4, 15, 44, 0)
s = 24: (0, 5, 21, 18, 5, 33, 29, 5, 6, 26, 42, 0)
s = 25: (0, 6, 20, 19, 2, 44, 42, 5, 4, 12, 61, 0)
s = 26: (0, 5, 31, 13, 3, 35, 41, 3, 8, 24, 43, 0)
s = 27: (0, 3, 42, 17, 3, 60, 32, 3, 7, 19, 47, 0)
s = 28: (0, 6, 23, 19, 3, 37, 36, 4, 8, 15, 67, 0)
s = 29: (0, 5, 37, 16, 5, 43, 29, 5, 10, 19, 50, 0)
s = 30: (0, 5, 18, 12, 4, 54, 42, 5, 7, 14, 50, 0)
s = 31: (0, 5, 25, 26, 3, 32, 35, 5, 7, 17, 30, 0)
s = 32: (0, 4, 36, 24, 4, 62, 39, 3, 5, 19, 67, 0)
s = 33: (0, 6, 23, 15, 4, 28, 47, 5, 7, 17, 55, 0)
s = 34: (0, 3, 28, 21, 3, 37, 37, 4, 4, 16, 66, 0)
s = 35: (0, 4, 24, 25, 4, 73, 51, 3, 9, 27, 54, 0)
s = 36: (0, 5, 17, 13, 3, 34, 55, 3, 9, 16, 40, 0)
s = 37: (0, 4, 21, 19, 3, 62, 35, 5, 4, 31, 38, 0)
s = 38: (0, 5, 14, 17, 3, 44, 24, 4, 5, 26, 34, 0)
s = 39: (0, 4, 39, 18, 2, 36, 42, 3, 5, 25, 61, 0)
s = 40: (0, 5, 39, 21, 3, 43, 36, 4, 8, 15, 36, 0)
s = 41: (0, 4, 26, 17, 4, 47, 33, 7, 5, 17, 42, 0)
s = 42: (0, 6, 19, 18, 5, 26, 51, 5, 9, 21, 69, 0)
s = 43: (0, 5, 34, 23, 3, 71, 58, 4, 4, 15, 87, 0)
s = 44: (0, 5, 21, 17, 3, 71, 32, 6, 5, 17, 31, 0)
s = 45: (0, 6, 18, 15, 5, 45, 45, 5, 8, 21, 76, 0)
s = 46: (0, 4, 14, 23, 4, 58, 46, 4, 5, 24, 29, 0)
s = 47: (0, 6, 20, 10, 4, 49, 59, 5, 9, 11, 52, 0)
s = 48: (0, 4, 21, 17, 3, 27, 42, 5, 7, 16, 43, 0)
s = 49: (0, 4, 30, 15, 4, 46, 30, 7, 7, 28, 40, 0)
s = 50: (0, 4, 26, 16, 2, 41, 45, 3, 9, 26, 56, 0)
s = 51: (0, 6, 22, 13, 4, 57, 45, 3, 8, 14, 57, 0)
s = 52: (0, 4, 24, 19, 5, 50, 51, 4, 6, 18, 55, 0)
s = 53: (0, 3, 22, 12, 4, 47, 43, 5, 6, 26, 57, 0)
s = 54: (0, 3, 15, 17, 2, 57, 47, 5, 6, 24, 54, 0)
s = 55: (0, 7, 18, 17, 3, 29, 33, 3, 5, 15, 64, 0)
s = 56: (0, 5, 23, 15, 3, 34, 29, 5, 5, 25, 75, 0)
s = 57: (0, 4, 29, 14, 3, 43, 62, 6, 4, 15, 51, 0)
s = 58: (0, 4, 22, 11, 6, 42, 24, 6, 6, 15, 48, 0)
s = 59: (0, 5, 34, 15, 3, 44, 33, 4, 8, 19, 39, 0)
s = 60: (0, 6, 19, 22, 3, 34, 30, 6, 9, 26, 30, 0)
s = 61: (0, 4, 33, 14, 3, 39, 33, 5, 5, 29, 75, 0)
s = 62: (0, 4, 19, 16, 4, 73, 43, 6, 4, 15, 49, 0)
s = 63: (0, 5, 29, 26, 3, 42, 40, 5, 8, 18, 37, 0)
s = 64: (0, 5, 42, 16, 4, 25, 40, 5, 7, 14, 69, 0)
s = 65: (0, 6, 16, 15, 2, 57, 67, 5, 5, 18, 42, 0)
s = 66: (0, 4, 18, 15, 3, 47, 57, 5, 5, 23, 64, 0)
s = 67: (0, 4, 43, 14, 3, 40, 37, 5, 6, 23, 59, 0)
s = 68: (0, 3, 22, 12, 3, 47, 26, 4, 8, 21, 49, 0)
s = 69: (0, 7, 37, 23, 5, 74, 40, 4, 5, 15, 49, 0)
s = 70: (0, 5, 18, 19, 4, 76, 48, 5, 7, 23, 35, 0)
s = 71: (0, 3, 17, 13, 4, 50, 36, 4, 5, 23, 40, 0)
s = 72: (0, 5, 29, 18, 3, 38, 54, 5, 10, 20, 57, 0)
s = 73: (0, 4, 27, 15, 4, 47, 55, 4, 5, 16, 63, 0)
s = 74: (0, 4, 22, 24, 4, 59, 32, 5, 8, 16, 30, 0)
s = 75: (0, 6, 41, 12, 5, 56, 31, 3, 6, 23, 56, 0)
s = 76: (0, 6, 22, 15, 3, 29, 41, 3, 5, 24, 53, 0)
s = 77: (0, 7, 32, 16, 3, 45, 46, 5, 5, 22, 87, 0)
s = 78: (0, 3, 26, 18, 3, 34, 33, 3, 4, 20, 51, 0)
s = 79: (0, 3, 21, 15, 3, 62, 28, 4, 5, 14, 36, 0)
s = 80: (0, 4, 26, 25, 4, 32, 53, 5, 7, 22, 54, 0)
s = 81: (0, 4, 35, 16, 4, 65, 27, 5, 8, 18, 31, 0)
s = 82: (0, 4, 32, 12, 3, 46, 54, 6, 6, 18, 67, 0)
s = 83: (0, 6, 27, 11, 3, 47, 70, 6, 9, 28, 32, 0)
s = 84: (0, 5, 19, 19, 5, 44, 49, 6, 6, 14, 61, 0)
s = 85: (0, 5, 17, 13, 3, 36, 49, 4, 7, 15, 40, 0)
s = 86: (0, 6, 20, 18, 3, 49, 56, 4, 5, 32, 40, 0)
s = 87: (0, 5, 18, 13, 3, 33, 59, 5, 5, 12, 63, 0)
s = 88: (0, 5, 32, 12, 4, 73, 57, 3, 7, 15, 38, 0)
s = 89: (0, 3, 17, 24, 4, 30, 25, 5, 7, 27, 41, 0)
s = 90: (0, 4, 22, 15, 3, 59, 49, 3, 10, 17, 76, 0)
s = 91: (0, 7, 16, 16, 3, 25, 34, 3, 6, 25, 34, 0)
s = 92: (0, 3, 16, 11, 4, 43, 33, 3, 9, 20, 51, 0)
s = 93: (0, 4, 22, 22, 2, 69, 57, 6, 4, 16, 52, 0)
s = 94: (0, 4, 25, 11, 3, 62, 32, 6, 8, 26, 35, 0)
s = 95: (0, 4, 30, 12, 3, 67, 36, 3, 7, 17, 48, 0)
s = 96: (0, 5, 27, 14, 3, 31, 40, 5, 9, 23, 47, 0)
s = 97: (0, 5, 22, 17, 4, 46, 34, 7, 7, 18, 67, 0)
s = 98: (0, 5, 24, 16, 3, 33, 62, 5, 8, 19, 70, 0)
s = 99: (0, 3, 19, 18, 4, 50, 27, 4, 8, 30, 43, 0)
s = 100: (0, 5, 36, 16, 5, 30, 24, 5, 8, 17, 49, 0)
s = 101: (0, 5, 20, 13, 4, 38, 34, 3, 8, 15, 32, 0)
s = 102: (0, 3, 15, 15, 5, 31, 44, 4, 6, 21, 52, 0)
s = 103: (0, 4, 26, 18, 2, 64, 41, 4, 8, 16, 80, 0)
s = 104: (0, 6, 40, 19, 3, 32, 24, 3, 4, 17, 61, 0)
s = 105: (0, 4, 26, 19, 4, 65, 35, 3, 6, 17, 78, 0)
s = 106: (0, 6, 27, 14, 4, 41, 28, 3, 9, 16, 53, 0)
s = 107: (0, 4, 24, 21, 3, 78, 60, 6, 5, 16, 70, 0)
s = 108: (0, 4, 27, 13, 5, 27, 34, 3, 9, 25, 41, 0)
s = 109: (0, 3, 19, 19, 5, 30, 34, 4, 5, 17, 51, 0)
s = 110: (0, 3, 18, 19, 2, 36, 38, 4, 7, 19, 58, 0)
s = 111: (0, 3, 17, 16, 3, 44, 53, 5, 4, 23, 28, 0)
s = 112: (0, 4, 30, 14, 3, 43, 29, 7, 7, 23, 43, 0)
s = 113: (0, 5, 23, 17, 4, 53, 38, 4, 7, 31, 62, 0)
s = 114: (0, 4, 28, 14, 4, 52, 55, 4, 6, 16, 44, 0)
s = 115: (0, 3, 23, 12, 4, 49, 45, 5, 5, 25, 36, 0)
s = 116: (0, 4, 18, 18, 2, 48, 27, 5, 9, 20, 52, 0)
s = 117: (0, 4, 16, 11, 3, 46, 44, 5, 8, 15, 61, 0)
s = 118: (0, 3, 22, 11, 4, 48, 53, 6, 4, 19, 43, 0)
s = 119: (0, 6, 29, 16, 4, 57, 28, 3, 6, 33, 59, 0)
s = 120: (0, 5, 30, 18, 4, 62, 37, 7, 9, 22, 39, 0)
s = 121: (0, 4, 20, 13, 2, 25, 45, 4, 5, 26, 30, 0)
s = 122: (0, 5, 24, 16, 3, 47, 54, 5, 8, 24, 41, 0)
s = 123: (0, 4, 18, 11, 4, 68, 43, 4, 5, 23, 64, 0)
s = 124: (0, 5, 23, 9, 4, 37, 61, 4, 5, 21, 38, 0)
s = 125: (0, 3, 29, 23, 5, 31, 26, 6, 6, 23, 37, 0)
s = 126: (0, 4, 18, 15, 3, 39, 45, 3, 4, 20, 68, 0)
s = 127: (0, 4, 31, 21, 3, 53, 53, 5, 8, 14, 62, 0)
s = 128: (0, 4, 31, 19, 3, 48, 39, 7, 5, 11, 85, 0)
s = 129: (0, 3, 18, 17, 3, 46, 39, 4, 5, 16, 53, 0)
s = 130: (0, 5, 40, 11, 3, 63, 48, 5, 5, 28, 38, 0)
s = 131: (0, 5, 21, 15, 3, 40, 43, 3, 6, 20, 46, 0)
s = 132: (0, 4, 18, 21, 4, 36, 35, 5, 6, 16, 51, 0)
s = 133: (0, 4, 30, 14, 2, 62, 42, 6, 6, 13, 43, 0)
s = 134: (0, 3, 18, 21, 3, 32, 38, 6, 6, 27, 54, 0)
s = 135: (0, 3, 26, 13, 3, 51, 70, 4, 6, 30, 41, 0)
s = 136: (0, 4, 18, 14, 4, 57, 40, 5, 5, 25, 36, 0)
s = 137: (0, 4, 34, 25, 3, 43, 43, 5, 9, 18, 42, 0)
s = 138: (0, 3, 19, 14, 3, 43, 41, 3, 7, 20, 37, 0)
s = 139: (0, 3, 18, 25, 3, 25, 40, 4, 5, 13, 77, 0)
s = 140: (0, 6, 21, 20, 2, 40, 29, 3, 10, 17, 44, 0)
s = 141: (0, 4, 21, 16, 3, 49, 58, 4, 6, 21, 36, 0)
s = 142: (0, 4, 18, 14, 3, 45, 29, 4, 5, 19, 56, 0)
s = 143: (0, 4, 25, 21, 3, 33, 29, 5, 9, 14, 64, 0)
s = 144: (0, 5, 25, 21, 4, 29, 49, 6, 11, 27, 57, 0)
s = 145: (0, 6, 33, 13, 2, 51, 36, 4, 7, 21, 32, 0)
s = 146: (0, 4, 34, 25, 3, 35, 22, 3, 6, 27, 34, 0)
s = 147: (0, 3, 16, 14, 3, 45, 47, 4, 7, 16, 82, 0)
s = 148: (0, 5, 23, 10, 3, 54, 45, 4, 7, 19, 36, 0)
s = 149: (0, 3, 27, 16, 3, 67, 65, 4, 7, 12, 62, 0)
s = 150: (0, 6, 22, 15, 4, 52, 38, 4, 6, 16, 40, 0)
s = 151: (0, 3, 15, 25, 5, 54, 58, 3, 7, 19, 30, 0)
s = 152: (0, 3, 23, 10, 4, 31, 40, 7, 7, 13, 58, 0)
s = 153: (0, 4, 15, 17, 4, 39, 32, 8, 7, 25, 57, 0)
s = 154: (0, 5, 28, 15, 4, 56, 34, 5, 8, 29, 42, 0)
s = 155: (0, 5, 25, 14, 4, 37, 39, 4, 5, 27, 61, 0)
s = 156: (0, 3, 23, 14, 6, 54, 23, 5, 7, 14, 42, 0)
s = 157: (0, 6, 34, 17, 4, 30, 30, 7, 5, 22, 58, 0)
s = 158: (0, 4, 19, 11, 4, 91, 33, 4, 5, 20, 39, 0)
s = 159: (0, 5, 26, 14, 3, 45, 37, 6, 10, 20, 82, 0)
s = 160: (0, 6, 34, 21, 5, 34, 24, 5, 5, 32, 48, 0)
s = 161: (0, 3, 30, 13, 4, 52, 41, 5, 9, 19, 41, 0)
s = 162: (0, 4, 16, 10, 4, 36, 39, 6, 5, 15, 55, 0)
s = 163: (0, 4, 21, 20, 2, 45, 35, 5, 7, 29, 41, 0)
s = 164: (0, 4, 20, 14, 4, 42, 47, 6, 5, 25, 37, 0)
s = 165: (0, 4, 32, 15, 3, 54, 28, 5, 8, 18, 73, 0)
s = 166: (0, 3, 42, 20, 4, 36, 38, 6, 7, 22, 57, 0)
s = 167: (0, 5, 24, 16, 2, 30, 45, 5, 7, 30, 37, 0)
s = 168: (0, 5, 20, 15, 5, 41, 29, 3, 6, 14, 68, 0)
s = 169: (0, 4, 30, 25, 2, 39, 46, 5, 9, 16, 65, 0)
s = 170: (0, 5, 23, 14, 4, 44, 57, 3, 9, 22, 75, 0)
s = 171: (0, 5, 27, 18, 5, 52, 33, 5, 6, 17, 72, 0)
s = 172: (0, 4, 22, 11, 3, 46, 42, 5, 4, 21, 39, 0)
s = 173: (0, 5, 22, 16, 3, 52, 28, 5, 6, 16, 98, 0)
s = 174: (0, 3, 18, 15, 3, 37, 34, 6, 7, 20, 76, 0)
s = 175: (0, 5, 19, 11, 4, 26, 56, 5, 9, 23, 46, 0)
s = 176: (0, 5, 26, 16, 4, 54, 43, 5, 7, 19, 36, 0)
s = 177: (0, 5, 25, 14, 3, 29, 39, 7, 7, 19, 49, 0)
s = 178: (0, 4, 26, 22, 4, 57, 61, 5, 7, 22, 46, 0)
s = 179: (0, 4, 26, 15, 5, 40, 45, 6, 9, 24, 62, 0)
s = 180: (0, 4, 33, 23, 5, 37, 24, 6, 10, 13, 58, 0)
s = 181: (0, 3, 28, 19, 4, 36, 50, 3, 8, 15, 74, 0)
s = 182: (0, 4, 32, 30, 3, 56, 49, 4, 5, 20, 42, 0)
s = 183: (0, 6, 21, 11, 4, 59, 51, 4, 8, 23, 42, 0)
s = 184: (0, 3, 34, 24, 2, 28, 39, 6, 6, 23, 38, 0)
s = 185: (0, 4, 22, 14, 3, 40, 64, 7, 6, 14, 79, 0)
s = 186: (0, 5, 21, 20, 4, 39, 30, 4, 7, 27, 59, 0)
s = 187: (0, 6, 28, 20, 5, 36, 41, 3, 7, 16, 29, 0)
s = 188: (0, 6, 38, 22, 4, 30, 28, 5, 7, 25, 58, 0)
s = 189: (0, 4, 18, 18, 4, 25, 45, 4, 6, 35, 40, 0)
s = 190: (0, 4, 29, 21, 4, 36, 48, 6, 6, 20, 57, 0)
s = 191: (0, 7, 33, 16, 3, 43, 47, 4, 4, 20, 52, 0)
s = 192: (0, 6, 19, 18, 4, 47, 42, 3, 5, 13, 46, 0)
s = 193: (0, 4, 33, 15, 4, 34, 34, 4, 8, 14, 69, 0)
s = 194: (0, 4, 17, 12, 5, 57, 31, 3, 4, 20, 31, 0)
s = 195: (0, 5, 36, 17, 4, 62, 28, 6, 6, 33, 41, 0)
s = 196: (0, 4, 18, 24, 5, 43, 34, 5, 6, 14, 36, 0)
s = 197: (0, 3, 33, 23, 3, 42, 56, 4, 7, 23, 74, 0)
s = 198: (0, 6, 20, 12, 2, 31, 50, 5, 5, 32, 62, 0)
s = 199: (0, 3, 27, 13, 3, 43, 36, 5, 6, 29, 73, 0)
s = 200: (0, 6, 18, 21, 2, 37, 32, 5, 10, 15, 65, 0)
------------------------------------------------------------------------
RESOURCE k = 2
s = 1: (0, 11, 31, 9, 4, 38, 0, 4, 7, 0, 0, 0)
s = 2: (0, 8, 40, 12, 8, 41, 0, 4, 9, 0, 0, 0)
s = 3: (0, 9, 20, 13, 5, 30, 0, 4, 5, 0, 0, 0)
s = 4: (0, 11, 39, 23, 6, 44, 0, 3, 7, 0, 0, 0)
s = 5: (0, 6, 36, 16, 10, 32, 0, 3, 11, 0, 0, 0)
s = 6: (0, 8, 34, 15, 6, 36, 0, 3, 10, 0, 0, 0)
s = 7: (0, 7, 32, 23, 11, 28, 0, 5, 6, 0, 0, 0)
s = 8: (0, 9, 30, 9, 4, 35, 0, 3, 5, 0, 0, 0)
s = 9: (0, 13, 55, 16, 6, 25, 0, 5, 9, 0, 0, 0)
s = 10: (0, 7, 26, 10, 9, 41, 0, 5, 8, 0, 0, 0)
s = 11: (0, 8, 33, 16, 7, 50, 0, 4, 12, 0, 0, 0)
s = 12: (0, 11, 34, 20, 5, 66, 0, 3, 7, 0, 0, 0)
s = 13: (0, 8, 24, 15, 5, 55, 0, 3, 7, 0, 0, 0)
s = 14: (0, 11, 19, 9, 4, 64, 0, 5, 6, 0, 0, 0)
s = 15: (0, 6, 30, 15, 5, 33, 0, 4, 11, 0, 0, 0)
s = 16: (0, 7, 32, 9, 5, 43, 0, 4, 7, 0, 0, 0)
s = 17: (0, 12, 41, 24, 5, 63, 0, 5, 12, 0, 0, 0)
s = 18: (0, 10, 25, 16, 9, 33, 0, 5, 8, 0, 0, 0)
s = 19: (0, 9, 30, 9, 7, 56, 0, 4, 8, 0, 0, 0)
s = 20: (0, 10, 29, 15, 8, 38, 0, 3, 7, 0, 0, 0)
s = 21: (0, 7, 33, 9, 6, 41, 0, 4, 11, 0, 0, 0)
s = 22: (0, 9, 19, 25, 6, 54, 0, 4, 6, 0, 0, 0)
s = 23: (0, 14, 23, 13, 5, 50, 0, 4, 5, 0, 0, 0)
s = 24: (0, 9, 28, 16, 9, 29, 0, 5, 7, 0, 0, 0)
s = 25: (0, 12, 26, 17, 4, 39, 0, 5, 5, 0, 0, 0)
s = 26: (0, 9, 41, 11, 5, 31, 0, 3, 9, 0, 0, 0)
s = 27: (0, 6, 56, 15, 5, 53, 0, 3, 8, 0, 0, 0)
s = 28: (0, 12, 31, 17, 5, 33, 0, 4, 9, 0, 0, 0)
s = 29: (0, 10, 49, 14, 9, 39, 0, 5, 12, 0, 0, 0)
s = 30: (0, 9, 24, 11, 7, 48, 0, 5, 8, 0, 0, 0)
s = 31: (0, 10, 33, 23, 5, 28, 0, 5, 8, 0, 0, 0)
s = 32: (0, 7, 48, 21, 8, 56, 0, 3, 6, 0, 0, 0)
s = 33: (0, 11, 30, 14, 7, 25, 0, 5, 8, 0, 0, 0)
s = 34: (0, 6, 37, 19, 5, 33, 0, 4, 5, 0, 0, 0)
s = 35: (0, 7, 32, 22, 8, 65, 0, 3, 10, 0, 0, 0)
s = 36: (0, 10, 22, 11, 6, 30, 0, 3, 11, 0, 0, 0)
s = 37: (0, 7, 27, 16, 5, 55, 0, 5, 4, 0, 0, 0)
s = 38: (0, 9, 18, 15, 5, 39, 0, 4, 5, 0, 0, 0)
s = 39: (0, 7, 51, 16, 4, 32, 0, 3, 6, 0, 0, 0)
s = 40: (0, 9, 52, 18, 6, 38, 0, 4, 9, 0, 0, 0)
s = 41: (0, 7, 34, 15, 8, 42, 0, 7, 6, 0, 0, 0)
s = 42: (0, 12, 25, 16, 10, 23, 0, 5, 10, 0, 0, 0)
s = 43: (0, 9, 46, 20, 5, 63, 0, 4, 5, 0, 0, 0)
s = 44: (0, 10, 28, 15, 6, 63, 0, 6, 5, 0, 0, 0)
s = 45: (0, 11, 23, 13, 9, 40, 0, 5, 9, 0, 0, 0)
s = 46: (0, 8, 18, 20, 7, 52, 0, 4, 6, 0, 0, 0)
s = 47: (0, 11, 26, 9, 7, 44, 0, 5, 10, 0, 0, 0)
s = 48: (0, 8, 27, 15, 5, 24, 0, 5, 8, 0, 0, 0)
s = 49: (0, 8, 39, 13, 8, 41, 0, 7, 9, 0, 0, 0)
s = 50: (0, 7, 35, 14, 4, 37, 0, 3, 11, 0, 0, 0)
s = 51: (0, 11, 29, 11, 8, 51, 0, 3, 9, 0, 0, 0)
s = 52: (0, 7, 32, 17, 10, 44, 0, 4, 7, 0, 0, 0)
s = 53: (0, 6, 29, 11, 7, 41, 0, 5, 7, 0, 0, 0)
s = 54: (0, 6, 20, 15, 4, 51, 0, 5, 7, 0, 0, 0)
s = 55: (0, 13, 24, 15, 6, 26, 0, 3, 6, 0, 0, 0)
s = 56: (0, 10, 31, 13, 6, 30, 0, 5, 6, 0, 0, 0)
s = 57: (0, 8, 39, 12, 6, 38, 0, 6, 5, 0, 0, 0)
s = 58: (0, 7, 29, 10, 11, 37, 0, 6, 7, 0, 0, 0)
s = 59: (0, 10, 45, 13, 6, 39, 0, 4, 9, 0, 0, 0)
s = 60: (0, 11, 26, 19, 5, 30, 0, 6, 10, 0, 0, 0)
s = 61: (0, 8, 44, 13, 6, 35, 0, 5, 5, 0, 0, 0)
s = 62: (0, 7, 25, 14, 7, 65, 0, 6, 4, 0, 0, 0)
s = 63: (0, 10, 39, 23, 6, 38, 0, 5, 10, 0, 0, 0)
s = 64: (0, 9, 55, 14, 7, 22, 0, 5, 9, 0, 0, 0)
s = 65: (0, 11, 21, 13, 4, 50, 0, 5, 6, 0, 0, 0)
s = 66: (0, 8, 24, 13, 6, 42, 0, 5, 6, 0, 0, 0)
s = 67: (0, 8, 58, 12, 5, 36, 0, 5, 7, 0, 0, 0)
s = 68: (0, 5, 30, 10, 5, 41, 0, 4, 10, 0, 0, 0)
s = 69: (0, 13, 49, 21, 9, 66, 0, 4, 6, 0, 0, 0)
s = 70: (0, 10, 23, 17, 7, 68, 0, 5, 8, 0, 0, 0)
s = 71: (0, 5, 22, 11, 7, 45, 0, 4, 6, 0, 0, 0)
s = 72: (0, 10, 38, 16, 5, 34, 0, 5, 11, 0, 0, 0)
s = 73: (0, 7, 36, 14, 7, 42, 0, 4, 6, 0, 0, 0)
s = 74: (0, 7, 30, 21, 8, 53, 0, 5, 9, 0, 0, 0)
s = 75: (0, 11, 55, 10, 10, 50, 0, 3, 7, 0, 0, 0)
s = 76: (0, 12, 29, 13, 6, 26, 0, 3, 5, 0, 0, 0)
s = 77: (0, 14, 43, 14, 5, 40, 0, 5, 5, 0, 0, 0)
s = 78: (0, 5, 35, 16, 6, 31, 0, 3, 5, 0, 0, 0)
s = 79: (0, 5, 27, 13, 5, 55, 0, 4, 5, 0, 0, 0)
s = 80: (0, 7, 34, 22, 8, 28, 0, 5, 8, 0, 0, 0)
s = 81: (0, 8, 46, 14, 7, 58, 0, 5, 9, 0, 0, 0)
s = 82: (0, 8, 43, 11, 6, 41, 0, 6, 7, 0, 0, 0)
s = 83: (0, 11, 35, 10, 6, 42, 0, 6, 11, 0, 0, 0)
s = 84: (0, 9, 25, 17, 9, 39, 0, 6, 7, 0, 0, 0)
s = 85: (0, 9, 23, 11, 6, 32, 0, 4, 8, 0, 0, 0)
s = 86: (0, 11, 27, 15, 5, 44, 0, 4, 6, 0, 0, 0)
s = 87: (0, 10, 24, 11, 5, 30, 0, 5, 6, 0, 0, 0)
s = 88: (0, 10, 43, 11, 7, 65, 0, 3, 8, 0, 0, 0)
s = 89: (0, 6, 23, 21, 7, 27, 0, 5, 8, 0, 0, 0)
s = 90: (0, 8, 29, 13, 6, 52, 0, 3, 11, 0, 0, 0)
s = 91: (0, 13, 21, 14, 5, 22, 0, 3, 6, 0, 0, 0)
s = 92: (0, 6, 21, 9, 7, 38, 0, 3, 10, 0, 0, 0)
s = 93: (0, 8, 30, 19, 4, 61, 0, 6, 5, 0, 0, 0)
s = 94: (0, 8, 33, 9, 5, 55, 0, 6, 9, 0, 0, 0)
s = 95: (0, 8, 40, 11, 5, 59, 0, 3, 8, 0, 0, 0)
s = 96: (0, 10, 36, 12, 6, 28, 0, 5, 10, 0, 0, 0)
s = 97: (0, 10, 29, 15, 7, 41, 0, 7, 8, 0, 0, 0)
s = 98: (0, 10, 32, 14, 5, 29, 0, 5, 9, 0, 0, 0)
s = 99: (0, 5, 26, 16, 7, 44, 0, 4, 9, 0, 0, 0)
s = 100: (0, 10, 48, 14, 10, 27, 0, 5, 9, 0, 0, 0)
s = 101: (0, 10, 26, 11, 8, 34, 0, 3, 9, 0, 0, 0)
s = 102: (0, 6, 20, 13, 9, 27, 0, 4, 6, 0, 0, 0)
s = 103: (0, 8, 35, 15, 4, 57, 0, 4, 10, 0, 0, 0)
s = 104: (0, 11, 53, 17, 6, 29, 0, 3, 5, 0, 0, 0)
s = 105: (0, 8, 34, 17, 8, 58, 0, 3, 7, 0, 0, 0)
s = 106: (0, 11, 36, 12, 7, 36, 0, 3, 11, 0, 0, 0)
s = 107: (0, 8, 32, 18, 5, 69, 0, 6, 6, 0, 0, 0)
s = 108: (0, 8, 35, 11, 9, 24, 0, 3, 11, 0, 0, 0)
s = 109: (0, 6, 25, 17, 9, 27, 0, 4, 6, 0, 0, 0)
s = 110: (0, 6, 24, 17, 4, 32, 0, 4, 8, 0, 0, 0)
s = 111: (0, 6, 22, 14, 6, 39, 0, 5, 5, 0, 0, 0)
s = 112: (0, 7, 39, 12, 6, 39, 0, 7, 8, 0, 0, 0)
s = 113: (0, 10, 31, 15, 7, 48, 0, 4, 8, 0, 0, 0)
s = 114: (0, 8, 37, 12, 8, 46, 0, 4, 7, 0, 0, 0)
s = 115: (0, 6, 30, 10, 8, 44, 0, 5, 6, 0, 0, 0)
s = 116: (0, 7, 24, 15, 4, 43, 0, 5, 11, 0, 0, 0)
s = 117: (0, 7, 22, 9, 6, 41, 0, 5, 9, 0, 0, 0)
s = 118: (0, 5, 29, 10, 7, 43, 0, 6, 4, 0, 0, 0)
s = 119: (0, 11, 39, 14, 7, 50, 0, 3, 7, 0, 0, 0)
s = 120: (0, 9, 39, 16, 7, 55, 0, 7, 11, 0, 0, 0)
s = 121: (0, 7, 27, 11, 4, 22, 0, 4, 6, 0, 0, 0)
s = 122: (0, 9, 32, 14, 6, 42, 0, 5, 9, 0, 0, 0)
s = 123: (0, 7, 24, 10, 8, 61, 0, 4, 5, 0, 0, 0)
s = 124: (0, 10, 31, 8, 7, 33, 0, 4, 5, 0, 0, 0)
s = 125: (0, 5, 38, 20, 10, 28, 0, 6, 7, 0, 0, 0)
s = 126: (0, 7, 24, 13, 6, 34, 0, 3, 5, 0, 0, 0)
s = 127: (0, 7, 41, 19, 5, 47, 0, 5, 9, 0, 0, 0)
s = 128: (0, 7, 41, 17, 5, 43, 0, 7, 6, 0, 0, 0)
s = 129: (0, 6, 23, 15, 6, 41, 0, 4, 6, 0, 0, 0)
s = 130: (0, 9, 53, 9, 6, 56, 0, 5, 6, 0, 0, 0)
s = 131: (0, 9, 28, 14, 5, 35, 0, 3, 7, 0, 0, 0)
s = 132: (0, 8, 24, 19, 7, 32, 0, 5, 7, 0, 0, 0)
s = 133: (0, 8, 40, 12, 4, 55, 0, 6, 7, 0, 0, 0)
s = 134: (0, 6, 23, 18, 5, 28, 0, 6, 7, 0, 0, 0)
s = 135: (0, 5, 35, 12, 6, 45, 0, 4, 7, 0, 0, 0)
s = 136: (0, 8, 24, 12, 7, 51, 0, 5, 5, 0, 0, 0)
s = 137: (0, 7, 45, 22, 6, 38, 0, 5, 11, 0, 0, 0)
s = 138: (0, 6, 25, 12, 5, 38, 0, 3, 8, 0, 0, 0)
s = 139: (0, 6, 23, 22, 6, 22, 0, 4, 6, 0, 0, 0)
s = 140: (0, 12, 28, 17, 4, 35, 0, 3, 12, 0, 0, 0)
s = 141: (0, 7, 28, 14, 6, 43, 0, 4, 7, 0, 0, 0)
s = 142: (0, 8, 24, 12, 5, 40, 0, 4, 6, 0, 0, 0)
s = 143: (0, 8, 34, 19, 5, 29, 0, 5, 11, 0, 0, 0)
s = 144: (0, 9, 33, 19, 8, 26, 0, 6, 12, 0, 0, 0)
s = 145: (0, 11, 44, 12, 4, 46, 0, 4, 9, 0, 0, 0)
s = 146: (0, 7, 45, 22, 6, 31, 0, 3, 7, 0, 0, 0)
s = 147: (0, 6, 21, 13, 5, 40, 0, 4, 8, 0, 0, 0)
s = 148: (0, 9, 30, 9, 6, 48, 0, 4, 8, 0, 0, 0)
s = 149: (0, 6, 36, 14, 5, 59, 0, 4, 8, 0, 0, 0)
s = 150: (0, 11, 29, 13, 8, 46, 0, 4, 7, 0, 0, 0)
s = 151: (0, 6, 20, 22, 10, 48, 0, 3, 8, 0, 0, 0)
s = 152: (0, 6, 30, 9, 7, 27, 0, 7, 8, 0, 0, 0)
s = 153: (0, 8, 19, 15, 8, 35, 0, 8, 8, 0, 0, 0)
s = 154: (0, 10, 37, 13, 8, 50, 0, 5, 9, 0, 0, 0)
s = 155: (0, 9, 34, 12, 7, 33, 0, 4, 6, 0, 0, 0)
s = 156: (0, 6, 31, 12, 11, 48, 0, 5, 8, 0, 0, 0)
s = 157: (0, 11, 45, 15, 8, 26, 0, 7, 6, 0, 0, 0)
s = 158: (0, 8, 25, 10, 7, 81, 0, 4, 5, 0, 0, 0)
s = 159: (0, 10, 34, 12, 5, 40, 0, 6, 11, 0, 0, 0)
s = 160: (0, 12, 45, 18, 10, 30, 0, 5, 6, 0, 0, 0)
s = 161: (0, 6, 39, 12, 8, 46, 0, 5, 10, 0, 0, 0)
s = 162: (0, 8, 21, 9, 7, 32, 0, 6, 5, 0, 0, 0)
s = 163: (0, 8, 28, 18, 4, 40, 0, 5, 8, 0, 0, 0)
s = 164: (0, 8, 27, 12, 7, 37, 0, 6, 5, 0, 0, 0)
s = 165: (0, 8, 42, 13, 6, 48, 0, 5, 9, 0, 0, 0)
s = 166: (0, 6, 56, 17, 8, 32, 0, 6, 8, 0, 0, 0)
s = 167: (0, 10, 31, 14, 4, 27, 0, 5, 8, 0, 0, 0)
s = 168: (0, 9, 27, 14, 9, 37, 0, 3, 7, 0, 0, 0)
s = 169: (0, 8, 40, 22, 4, 35, 0, 5, 10, 0, 0, 0)
s = 170: (0, 9, 31, 12, 8, 39, 0, 3, 10, 0, 0, 0)
s = 171: (0, 10, 36, 16, 9, 46, 0, 5, 6, 0, 0, 0)
s = 172: (0, 7, 29, 10, 5, 41, 0, 5, 5, 0, 0, 0)
s = 173: (0, 10, 29, 14, 6, 47, 0, 5, 7, 0, 0, 0)
s = 174: (0, 5, 24, 13, 5, 33, 0, 6, 8, 0, 0, 0)
s = 175: (0, 10, 25, 10, 8, 23, 0, 5, 11, 0, 0, 0)
s = 176: (0, 9, 35, 14, 7, 48, 0, 5, 8, 0, 0, 0)
s = 177: (0, 9, 33, 12, 5, 26, 0, 7, 8, 0, 0, 0)
s = 178: (0, 8, 34, 19, 8, 51, 0, 5, 8, 0, 0, 0)
s = 179: (0, 8, 34, 13, 9, 35, 0, 6, 10, 0, 0, 0)
s = 180: (0, 7, 44, 20, 9, 33, 0, 6, 12, 0, 0, 0)
s = 181: (0, 6, 37, 17, 7, 32, 0, 3, 9, 0, 0, 0)
s = 182: (0, 7, 43, 26, 6, 50, 0, 4, 6, 0, 0, 0)
s = 183: (0, 11, 28, 10, 7, 52, 0, 4, 10, 0, 0, 0)
s = 184: (0, 5, 45, 21, 4, 25, 0, 6, 7, 0, 0, 0)
s = 185: (0, 8, 30, 13, 5, 35, 0, 7, 7, 0, 0, 0)
s = 186: (0, 10, 28, 18, 7, 34, 0, 4, 8, 0, 0, 0)
s = 187: (0, 12, 37, 17, 9, 32, 0, 3, 8, 0, 0, 0)
s = 188: (0, 11, 50, 19, 8, 26, 0, 5, 8, 0, 0, 0)
s = 189: (0, 8, 24, 16, 7, 23, 0, 4, 7, 0, 0, 0)
s = 190: (0, 8, 39, 19, 7, 32, 0, 6, 7, 0, 0, 0)
s = 191: (0, 14, 44, 14, 5, 38, 0, 4, 5, 0, 0, 0)
s = 192: (0, 11, 25, 16, 8, 42, 0, 3, 6, 0, 0, 0)
s = 193: (0, 8, 44, 13, 7, 30, 0, 4, 10, 0, 0, 0)
s = 194: (0, 8, 23, 11, 9, 50, 0, 3, 5, 0, 0, 0)
s = 195: (0, 10, 48, 15, 7, 55, 0, 6, 7, 0, 0, 0)
s = 196: (0, 7, 24, 21, 10, 38, 0, 5, 7, 0, 0, 0)
s = 197: (0, 6, 43, 20, 5, 37, 0, 4, 8, 0, 0, 0)
s = 198: (0, 12, 27, 10, 4, 28, 0, 5, 6, 0, 0, 0)
s = 199: (0, 6, 36, 11, 5, 39, 0, 5, 7, 0, 0, 0)
s = 200: (0, 11, 23, 18, 4, 33, 0, 5, 11, 0, 0, 0)
------------------------------------------------------------------------
RESOURCE k = 3
s = 1: (0, 0, 0, 0, 0, 0, 27, 0, 0, 11, 27, 0)
s = 2: (0, 0, 0, 0, 0, 0, 20, 0, 0, 18, 31, 0)
s = 3: (0, 0, 0, 0, 0, 0, 29, 0, 0, 11, 26, 0)
s = 4: (0, 0, 0, 0, 0, 0, 29, 0, 0, 14, 23, 0)
s = 5: (0, 0, 0, 0, 0, 0, 27, 0, 0, 10, 30, 0)
s = 6: (0, 0, 0, 0, 0, 0, 22, 0, 0, 16, 40, 0)
s = 7: (0, 0, 0, 0, 0, 0, 31, 0, 0, 14, 36, 0)
s = 8: (0, 0, 0, 0, 0, 0, 23, 0, 0, 15, 24, 0)
s = 9: (0, 0, 0, 0, 0, 0, 13, 0, 0, 15, 31, 0)
s = 10: (0, 0, 0, 0, 0, 0, 20, 0, 0, 16, 37, 0)
s = 11: (0, 0, 0, 0, 0, 0, 26, 0, 0, 11, 24, 0)
s = 12: (0, 0, 0, 0, 0, 0, 19, 0, 0, 19, 19, 0)
s = 13: (0, 0, 0, 0, 0, 0, 32, 0, 0, 16, 26, 0)
s = 14: (0, 0, 0, 0, 0, 0, 15, 0, 0, 19, 16, 0)
s = 15: (0, 0, 0, 0, 0, 0, 35, 0, 0, 16, 17, 0)
s = 16: (0, 0, 0, 0, 0, 0, 34, 0, 0, 16, 22, 0)
s = 17: (0, 0, 0, 0, 0, 0, 17, 0, 0, 20, 26, 0)
s = 18: (0, 0, 0, 0, 0, 0, 20, 0, 0, 16, 32, 0)
s = 19: (0, 0, 0, 0, 0, 0, 17, 0, 0, 8, 27, 0)
s = 20: (0, 0, 0, 0, 0, 0, 27, 0, 0, 19, 33, 0)
s = 21: (0, 0, 0, 0, 0, 0, 27, 0, 0, 11, 24, 0)
s = 22: (0, 0, 0, 0, 0, 0, 22, 0, 0, 11, 20, 0)
s = 23: (0, 0, 0, 0, 0, 0, 20, 0, 0, 11, 26, 0)
s = 24: (0, 0, 0, 0, 0, 0, 18, 0, 0, 18, 24, 0)
s = 25: (0, 0, 0, 0, 0, 0, 25, 0, 0, 8, 35, 0)
s = 26: (0, 0, 0, 0, 0, 0, 25, 0, 0, 17, 25, 0)
s = 27: (0, 0, 0, 0, 0, 0, 20, 0, 0, 14, 27, 0)
s = 28: (0, 0, 0, 0, 0, 0, 22, 0, 0, 11, 39, 0)
s = 29: (0, 0, 0, 0, 0, 0, 18, 0, 0, 13, 29, 0)
s = 30: (0, 0, 0, 0, 0, 0, 26, 0, 0, 10, 29, 0)
s = 31: (0, 0, 0, 0, 0, 0, 21, 0, 0, 12, 17, 0)
s = 32: (0, 0, 0, 0, 0, 0, 24, 0, 0, 14, 38, 0)
s = 33: (0, 0, 0, 0, 0, 0, 28, 0, 0, 12, 32, 0)
s = 34: (0, 0, 0, 0, 0, 0, 22, 0, 0, 11, 38, 0)
s = 35: (0, 0, 0, 0, 0, 0, 31, 0, 0, 19, 31, 0)
s = 36: (0, 0, 0, 0, 0, 0, 33, 0, 0, 11, 23, 0)
s = 37: (0, 0, 0, 0, 0, 0, 21, 0, 0, 22, 22, 0)
s = 38: (0, 0, 0, 0, 0, 0, 15, 0, 0, 18, 20, 0)
s = 39: (0, 0, 0, 0, 0, 0, 25, 0, 0, 18, 35, 0)
s = 40: (0, 0, 0, 0, 0, 0, 22, 0, 0, 11, 21, 0)
s = 41: (0, 0, 0, 0, 0, 0, 20, 0, 0, 12, 24, 0)
s = 42: (0, 0, 0, 0, 0, 0, 31, 0, 0, 15, 40, 0)
s = 43: (0, 0, 0, 0, 0, 0, 35, 0, 0, 10, 50, 0)
s = 44: (0, 0, 0, 0, 0, 0, 19, 0, 0, 12, 18, 0)
s = 45: (0, 0, 0, 0, 0, 0, 27, 0, 0, 15, 43, 0)
s = 46: (0, 0, 0, 0, 0, 0, 28, 0, 0, 17, 17, 0)
s = 47: (0, 0, 0, 0, 0, 0, 35, 0, 0, 8, 30, 0)
s = 48: (0, 0, 0, 0, 0, 0, 25, 0, 0, 11, 25, 0)
s = 49: (0, 0, 0, 0, 0, 0, 18, 0, 0, 20, 23, 0)
s = 50: (0, 0, 0, 0, 0, 0, 27, 0, 0, 18, 32, 0)
s = 51: (0, 0, 0, 0, 0, 0, 27, 0, 0, 10, 33, 0)
s = 52: (0, 0, 0, 0, 0, 0, 31, 0, 0, 13, 32, 0)
s = 53: (0, 0, 0, 0, 0, 0, 26, 0, 0, 19, 33, 0)
s = 54: (0, 0, 0, 0, 0, 0, 29, 0, 0, 17, 31, 0)
s = 55: (0, 0, 0, 0, 0, 0, 20, 0, 0, 11, 37, 0)
s = 56: (0, 0, 0, 0, 0, 0, 18, 0, 0, 18, 43, 0)
s = 57: (0, 0, 0, 0, 0, 0, 37, 0, 0, 11, 29, 0)
s = 58: (0, 0, 0, 0, 0, 0, 15, 0, 0, 11, 27, 0)
s = 59: (0, 0, 0, 0, 0, 0, 20, 0, 0, 14, 22, 0)
s = 60: (0, 0, 0, 0, 0, 0, 18, 0, 0, 18, 17, 0)
s = 61: (0, 0, 0, 0, 0, 0, 20, 0, 0, 21, 43, 0)
s = 62: (0, 0, 0, 0, 0, 0, 26, 0, 0, 11, 28, 0)
s = 63: (0, 0, 0, 0, 0, 0, 24, 0, 0, 13, 21, 0)
s = 64: (0, 0, 0, 0, 0, 0, 24, 0, 0, 10, 39, 0)
s = 65: (0, 0, 0, 0, 0, 0, 40, 0, 0, 13, 24, 0)
s = 66: (0, 0, 0, 0, 0, 0, 35, 0, 0, 16, 37, 0)
s = 67: (0, 0, 0, 0, 0, 0, 23, 0, 0, 16, 34, 0)
s = 68: (0, 0, 0, 0, 0, 0, 16, 0, 0, 15, 28, 0)
s = 69: (0, 0, 0, 0, 0, 0, 24, 0, 0, 11, 28, 0)
s = 70: (0, 0, 0, 0, 0, 0, 29, 0, 0, 16, 20, 0)
s = 71: (0, 0, 0, 0, 0, 0, 22, 0, 0, 16, 23, 0)
s = 72: (0, 0, 0, 0, 0, 0, 33, 0, 0, 14, 33, 0)
s = 73: (0, 0, 0, 0, 0, 0, 33, 0, 0, 11, 36, 0)
s = 74: (0, 0, 0, 0, 0, 0, 19, 0, 0, 11, 17, 0)
s = 75: (0, 0, 0, 0, 0, 0, 19, 0, 0, 16, 32, 0)
s = 76: (0, 0, 0, 0, 0, 0, 25, 0, 0, 17, 31, 0)
s = 77: (0, 0, 0, 0, 0, 0, 28, 0, 0, 16, 50, 0)
s = 78: (0, 0, 0, 0, 0, 0, 20, 0, 0, 14, 30, 0)
s = 79: (0, 0, 0, 0, 0, 0, 17, 0, 0, 10, 21, 0)
s = 80: (0, 0, 0, 0, 0, 0, 32, 0, 0, 15, 31, 0)
s = 81: (0, 0, 0, 0, 0, 0, 16, 0, 0, 13, 18, 0)
s = 82: (0, 0, 0, 0, 0, 0, 32, 0, 0, 13, 38, 0)
s = 83: (0, 0, 0, 0, 0, 0, 42, 0, 0, 20, 19, 0)
s = 84: (0, 0, 0, 0, 0, 0, 30, 0, 0, 10, 35, 0)
s = 85: (0, 0, 0, 0, 0, 0, 29, 0, 0, 11, 23, 0)
s = 86: (0, 0, 0, 0, 0, 0, 34, 0, 0, 22, 23, 0)
s = 87: (0, 0, 0, 0, 0, 0, 36, 0, 0, 9, 36, 0)
s = 88: (0, 0, 0, 0, 0, 0, 34, 0, 0, 11, 22, 0)
s = 89: (0, 0, 0, 0, 0, 0, 15, 0, 0, 19, 24, 0)
s = 90: (0, 0, 0, 0, 0, 0, 30, 0, 0, 12, 44, 0)
s = 91: (0, 0, 0, 0, 0, 0, 20, 0, 0, 18, 20, 0)
s = 92: (0, 0, 0, 0, 0, 0, 20, 0, 0, 14, 29, 0)
s = 93: (0, 0, 0, 0, 0, 0, 34, 0, 0, 11, 30, 0)
s = 94: (0, 0, 0, 0, 0, 0, 19, 0, 0, 18, 20, 0)
s = 95: (0, 0, 0, 0, 0, 0, 22, 0, 0, 12, 28, 0)
s = 96: (0, 0, 0, 0, 0, 0, 24, 0, 0, 16, 27, 0)
s = 97: (0, 0, 0, 0, 0, 0, 20, 0, 0, 12, 38, 0)
s = 98: (0, 0, 0, 0, 0, 0, 38, 0, 0, 13, 40, 0)
s = 99: (0, 0, 0, 0, 0, 0, 16, 0, 0, 21, 25, 0)
s = 100: (0, 0, 0, 0, 0, 0, 14, 0, 0, 12, 28, 0)
s = 101: (0, 0, 0, 0, 0, 0, 21, 0, 0, 10, 19, 0)
s = 102: (0, 0, 0, 0, 0, 0, 26, 0, 0, 15, 30, 0)
s = 103: (0, 0, 0, 0, 0, 0, 25, 0, 0, 11, 46, 0)
s = 104: (0, 0, 0, 0, 0, 0, 14, 0, 0, 12, 35, 0)
s = 105: (0, 0, 0, 0, 0, 0, 21, 0, 0, 12, 45, 0)
s = 106: (0, 0, 0, 0, 0, 0, 17, 0, 0, 11, 31, 0)
s = 107: (0, 0, 0, 0, 0, 0, 36, 0, 0, 12, 40, 0)
s = 108: (0, 0, 0, 0, 0, 0, 21, 0, 0, 18, 24, 0)
s = 109: (0, 0, 0, 0, 0, 0, 21, 0, 0, 12, 29, 0)
s = 110: (0, 0, 0, 0, 0, 0, 23, 0, 0, 14, 34, 0)
s = 111: (0, 0, 0, 0, 0, 0, 32, 0, 0, 16, 16, 0)
s = 112: (0, 0, 0, 0, 0, 0, 18, 0, 0, 17, 25, 0)
s = 113: (0, 0, 0, 0, 0, 0, 23, 0, 0, 22, 36, 0)
s = 114: (0, 0, 0, 0, 0, 0, 33, 0, 0, 12, 25, 0)
s = 115: (0, 0, 0, 0, 0, 0, 27, 0, 0, 17, 21, 0)
s = 116: (0, 0, 0, 0, 0, 0, 16, 0, 0, 14, 30, 0)
s = 117: (0, 0, 0, 0, 0, 0, 27, 0, 0, 11, 35, 0)
s = 118: (0, 0, 0, 0, 0, 0, 32, 0, 0, 14, 25, 0)
s = 119: (0, 0, 0, 0, 0, 0, 17, 0, 0, 23, 34, 0)
s = 120: (0, 0, 0, 0, 0, 0, 23, 0, 0, 16, 23, 0)
s = 121: (0, 0, 0, 0, 0, 0, 27, 0, 0, 18, 17, 0)
s = 122: (0, 0, 0, 0, 0, 0, 33, 0, 0, 17, 24, 0)
s = 123: (0, 0, 0, 0, 0, 0, 26, 0, 0, 16, 37, 0)
s = 124: (0, 0, 0, 0, 0, 0, 37, 0, 0, 15, 22, 0)
s = 125: (0, 0, 0, 0, 0, 0, 16, 0, 0, 17, 21, 0)
s = 126: (0, 0, 0, 0, 0, 0, 27, 0, 0, 14, 39, 0)
s = 127: (0, 0, 0, 0, 0, 0, 32, 0, 0, 10, 35, 0)
s = 128: (0, 0, 0, 0, 0, 0, 24, 0, 0, 8, 49, 0)
s = 129: (0, 0, 0, 0, 0, 0, 24, 0, 0, 11, 30, 0)
s = 130: (0, 0, 0, 0, 0, 0, 29, 0, 0, 20, 22, 0)
s = 131: (0, 0, 0, 0, 0, 0, 26, 0, 0, 14, 27, 0)
s = 132: (0, 0, 0, 0, 0, 0, 21, 0, 0, 11, 30, 0)
s = 133: (0, 0, 0, 0, 0, 0, 25, 0, 0, 9, 25, 0)
s = 134: (0, 0, 0, 0, 0, 0, 23, 0, 0, 19, 31, 0)
s = 135: (0, 0, 0, 0, 0, 0, 42, 0, 0, 21, 23, 0)
s = 136: (0, 0, 0, 0, 0, 0, 24, 0, 0, 18, 21, 0)
s = 137: (0, 0, 0, 0, 0, 0, 26, 0, 0, 13, 24, 0)
s = 138: (0, 0, 0, 0, 0, 0, 25, 0, 0, 14, 21, 0)
s = 139: (0, 0, 0, 0, 0, 0, 24, 0, 0, 10, 44, 0)
s = 140: (0, 0, 0, 0, 0, 0, 17, 0, 0, 12, 25, 0)
s = 141: (0, 0, 0, 0, 0, 0, 35, 0, 0, 15, 21, 0)
s = 142: (0, 0, 0, 0, 0, 0, 18, 0, 0, 14, 32, 0)
s = 143: (0, 0, 0, 0, 0, 0, 18, 0, 0, 10, 37, 0)
s = 144: (0, 0, 0, 0, 0, 0, 30, 0, 0, 19, 33, 0)
s = 145: (0, 0, 0, 0, 0, 0, 22, 0, 0, 15, 19, 0)
s = 146: (0, 0, 0, 0, 0, 0, 13, 0, 0, 19, 20, 0)
s = 147: (0, 0, 0, 0, 0, 0, 28, 0, 0, 11, 47, 0)
s = 148: (0, 0, 0, 0, 0, 0, 27, 0, 0, 14, 21, 0)
s = 149: (0, 0, 0, 0, 0, 0, 39, 0, 0, 8, 36, 0)
s = 150: (0, 0, 0, 0, 0, 0, 23, 0, 0, 11, 23, 0)
s = 151: (0, 0, 0, 0, 0, 0, 35, 0, 0, 14, 18, 0)
s = 152: (0, 0, 0, 0, 0, 0, 24, 0, 0, 9, 34, 0)
s = 153: (0, 0, 0, 0, 0, 0, 19, 0, 0, 17, 33, 0)
s = 154: (0, 0, 0, 0, 0, 0, 21, 0, 0, 21, 24, 0)
s = 155: (0, 0, 0, 0, 0, 0, 24, 0, 0, 19, 35, 0)
s = 156: (0, 0, 0, 0, 0, 0, 14, 0, 0, 10, 24, 0)
s = 157: (0, 0, 0, 0, 0, 0, 18, 0, 0, 15, 34, 0)
s = 158: (0, 0, 0, 0, 0, 0, 20, 0, 0, 14, 23, 0)
s = 159: (0, 0, 0, 0, 0, 0, 23, 0, 0, 14, 47, 0)
s = 160: (0, 0, 0, 0, 0, 0, 15, 0, 0, 23, 27, 0)
s = 161: (0, 0, 0, 0, 0, 0, 25, 0, 0, 13, 23, 0)
s = 162: (0, 0, 0, 0, 0, 0, 24, 0, 0, 11, 32, 0)
s = 163: (0, 0, 0, 0, 0, 0, 21, 0, 0, 20, 24, 0)
s = 164: (0, 0, 0, 0, 0, 0, 28, 0, 0, 18, 22, 0)
s = 165: (0, 0, 0, 0, 0, 0, 17, 0, 0, 13, 42, 0)
s = 166: (0, 0, 0, 0, 0, 0, 23, 0, 0, 16, 33, 0)
s = 167: (0, 0, 0, 0, 0, 0, 27, 0, 0, 21, 22, 0)
s = 168: (0, 0, 0, 0, 0, 0, 18, 0, 0, 10, 39, 0)
s = 169: (0, 0, 0, 0, 0, 0, 28, 0, 0, 11, 37, 0)
s = 170: (0, 0, 0, 0, 0, 0, 34, 0, 0, 16, 43, 0)
s = 171: (0, 0, 0, 0, 0, 0, 20, 0, 0, 12, 42, 0)
s = 172: (0, 0, 0, 0, 0, 0, 25, 0, 0, 15, 23, 0)
s = 173: (0, 0, 0, 0, 0, 0, 17, 0, 0, 11, 56, 0)
s = 174: (0, 0, 0, 0, 0, 0, 20, 0, 0, 14, 44, 0)
s = 175: (0, 0, 0, 0, 0, 0, 34, 0, 0, 16, 26, 0)
s = 176: (0, 0, 0, 0, 0, 0, 26, 0, 0, 14, 21, 0)
s = 177: (0, 0, 0, 0, 0, 0, 24, 0, 0, 13, 28, 0)
s = 178: (0, 0, 0, 0, 0, 0, 37, 0, 0, 16, 26, 0)
s = 179: (0, 0, 0, 0, 0, 0, 27, 0, 0, 17, 36, 0)
s = 180: (0, 0, 0, 0, 0, 0, 14, 0, 0, 9, 33, 0)
s = 181: (0, 0, 0, 0, 0, 0, 30, 0, 0, 11, 42, 0)
s = 182: (0, 0, 0, 0, 0, 0, 30, 0, 0, 14, 24, 0)
s = 183: (0, 0, 0, 0, 0, 0, 31, 0, 0, 17, 24, 0)
s = 184: (0, 0, 0, 0, 0, 0, 24, 0, 0, 17, 22, 0)
s = 185: (0, 0, 0, 0, 0, 0, 39, 0, 0, 10, 45, 0)
s = 186: (0, 0, 0, 0, 0, 0, 18, 0, 0, 19, 34, 0)
s = 187: (0, 0, 0, 0, 0, 0, 25, 0, 0, 11, 17, 0)
s = 188: (0, 0, 0, 0, 0, 0, 17, 0, 0, 18, 34, 0)
s = 189: (0, 0, 0, 0, 0, 0, 27, 0, 0, 25, 23, 0)
s = 190: (0, 0, 0, 0, 0, 0, 29, 0, 0, 14, 33, 0)
s = 191: (0, 0, 0, 0, 0, 0, 28, 0, 0, 14, 30, 0)
s = 192: (0, 0, 0, 0, 0, 0, 26, 0, 0, 9, 27, 0)
s = 193: (0, 0, 0, 0, 0, 0, 21, 0, 0, 10, 40, 0)
s = 194: (0, 0, 0, 0, 0, 0, 19, 0, 0, 14, 18, 0)
s = 195: (0, 0, 0, 0, 0, 0, 17, 0, 0, 23, 24, 0)
s = 196: (0, 0, 0, 0, 0, 0, 21, 0, 0, 10, 21, 0)
s = 197: (0, 0, 0, 0, 0, 0, 34, 0, 0, 16, 43, 0)
s = 198: (0, 0, 0, 0, 0, 0, 30, 0, 0, 23, 36, 0)
s = 199: (0, 0, 0, 0, 0, 0, 22, 0, 0, 20, 42, 0)
s = 200: (0, 0, 0, 0, 0, 0, 20, 0, 0, 11, 38, 0)
************************************************************************
ES/LS-VALUES:
jobnr.   ES(i)    LS(i)
------------------------------------------------------------------------
  0        0        0
  1        0       56
  2        0       66
  3        0       47
  4        3       60
  5        3       51
  6        3       65
  7        3       60
  8        7       74
  9       13       72
 10       13       62
 11       27       76
************************************************************************
BIG-M-VALUES:
M1 = 65, M2 = 201
************************************************************************
